<?xml version="1.0" encoding="UTF-8"?><osil xmlns="os.optimizationservices.org"   xmlns:xsi="http://www.w3.org/2001/XMLSchema-instance" xsi:schemaLocation="os.optimizationservices.org http://www.optimizationservices.org/schemas/2.0/OSiL.xsd" ><instanceHeader><name>power_reform</name></instanceHeader><instanceData><variables numberOfVariables="53"><var name="x0" lb=".1" ub="2.7"/><var name="x1" lb="-3" ub="3"/><var name="x2" lb="-2.5" ub=".5"/><var name="x3" lb="-2.5" ub="2.5"/><var name="x4" lb="-1.5" ub="1.5"/><var name="x5" lb="-1.5" ub="1.5"/><var name="x6" lb="-1.5" ub="1.5"/><var name="x7" lb="-1.5" ub="1.5"/><var name="x8" lb="-2.5" ub="2.5"/><var name="x9" lb=".1" ub="2.5"/><var name="x10" lb="-2.4" ub="2.5"/><var name="x11" lb="-2.4" ub=".6"/><var name="x12" lb=".1" ub="2.5"/><var name="x13" lb="-2.5" ub="-.1"/><var name="x14" lb="-2.5" ub="1.25"/><var name="x15" lb="-2.4" ub="2.5"/><var name="x16" lb="-2.5" ub="2.5"/><var name="x17" lb="-2.5" ub="1.25"/><var name="x18" lb="-2.99833" ub="2.99833"/><var name="x19" lb="-3" ub="3"/><var name="x20" lb="-1.85" ub="1.15"/><var name="x21" lb="-2.5" ub="2.5"/><var name="x22" lb="-1.5" ub="1.5"/><var name="x23" lb="-1.5" ub="1.5"/><var name="x24" lb="-1.5" ub="1.5"/><var name="x25" lb="-1.5" ub="1.5"/><var name="x26" lb="-2.5" ub="2.5"/><var name="x27" lb="-2.498" ub="2.498"/><var name="x28" lb="-2.5" ub="2.5"/><var name="x29" lb="-1.8" ub="1.2"/><var name="x30" lb="-2.498" ub="2.498"/><var name="x31" lb="-2.498" ub="2.498"/><var name="x32" lb="-2.5" ub="2"/><var name="x33" lb="-2.5" ub="2.5"/><var name="x34" lb="-2.5" ub="2.5"/><var name="x35" lb="-2.5" ub="2"/><var name="x36" lb="-1.1" ub="1.1"/><var name="x37" lb="-1.1" ub="1.1"/><var name="x38" lb="-1.1" ub="1.1"/><var name="x39" lb="-1.1" ub="1.1"/><var name="x40" lb="-1.1" ub="1.1"/><var name="x41" lb="-1.1" ub="1.1"/><var name="x42" lb="-1.1" ub="1.1"/><var name="x43" lb="-1.1" ub="1.1"/><var name="x44" lb="-1.1" ub="1.1"/><var name="x45" lb="-1.1" ub="1.1"/><var name="x46" lb="-1.1" ub="1.1"/><var name="x47" lb="-1.1" ub="1.1"/><var name="x48" lb="-1.1" ub="1.1"/><var name="x49" lb="-1.1" ub="1.1"/><var name="x50" lb="-1.1" ub="1.1"/><var name="x51" lb="-1.1" ub="1.1"/><var name="x52" lb="-1.1" ub="1.1"/></variables><objectives numberOfObjectives="1"><obj maxOrMin="min" constant="1085" name="defObj_objvar" numberOfObjCoef="3"><coef idx="0">100</coef><coef idx="9">1.2e2</coef><coef idx="12">500</coef></obj></objectives><constraints numberOfConstraints="84"><con name="e1" lb="0" ub="0"/><con name="e2" lb="0" ub="0"/><con name="e3" lb="0" ub="0"/><con name="e4" lb="0" ub="0"/><con name="e5" lb="0" ub="0"/><con name="e6" lb="0" ub="0"/><con name="e7" lb="0" ub="0"/><con name="e8" lb="0" ub="0"/><con name="e9" lb="0" ub="0"/><con name="e10" lb="0" ub="0"/><con name="e11" lb="0" ub="0"/><con name="e12" lb="0" ub="0"/><con name="e13" lb="0" ub="0"/><con name="e14" lb="0" ub="0"/><con name="e15" lb="0" ub="0"/><con name="e16" lb="0" ub="0"/><con name="e17" lb="0" ub="0"/><con name="e18" lb="0" ub="0"/><con name="e19" lb="0" ub="0"/><con name="e20" lb="0" ub="0"/><con name="e21" lb="0" ub="0"/><con name="e22" lb="0" ub="0"/><con name="e23" lb="0" ub="0"/><con name="e24" lb="0" ub="0"/><con name="e25" lb="0" ub="0"/><con name="e26" lb="0" ub="0"/><con name="e27" lb="0" ub="0"/><con name="e28" lb="0" ub="0"/><con name="e29" lb="0" ub="0"/><con name="e30" lb="0" ub="0"/><con name="e31" lb="0" ub="0"/><con name="e32" lb="0" ub="0"/><con name="e33" lb="0" ub="0"/><con name="e34" lb="0" ub="0"/><con name="e35" lb="0" ub="0"/><con name="e36" lb="0" ub="0"/><con name="e37" ub="9"/><con name="e38" ub="9"/><con name="e39" ub="6.25"/><con name="e40" ub="6.25"/><con name="e41" ub="2.25"/><con name="e42" ub="2.25"/><con name="e43" ub="2.25"/><con name="e44" ub="2.25"/><con name="e45" ub="6.25"/><con name="e46" ub="6.25"/><con name="e47" ub="6.25"/><con name="e48" ub="6.25"/><con name="e49" ub="6.25"/><con name="e50" ub="6.25"/><con name="e51" ub="6.25"/><con name="e52" ub="6.25"/><con name="e53" ub="6.25"/><con name="e54" ub="6.25"/><con name="e55" ub="1.21"/><con name="e55Range" lb=".81"/><con name="e56" ub="1.21"/><con name="e56Range" lb=".81"/><con name="e57" ub="1.21"/><con name="e57Range" lb=".81"/><con name="e58" ub="1.21"/><con name="e58Range" lb=".81"/><con name="e59" ub="1.21"/><con name="e59Range" lb=".81"/><con name="e60" ub="1.21"/><con name="e60Range" lb=".81"/><con name="e61" ub="1.21"/><con name="e61Range" lb=".81"/><con name="e62" ub="1.21"/><con name="e62Range" lb=".81"/><con name="e63" ub="1.21"/><con name="e63Range" lb=".81"/><con name="e64" lb="0" ub="0"/><con name="e65" lb="-.9" ub="-.9"/><con name="e66" lb="0" ub="0"/><con name="e67" lb="-1" ub="-1"/><con name="e68" lb="0" ub="0"/><con name="e69" lb="-1.25" ub="-1.25"/><con name="e70" lb="0" ub="0"/><con name="e71" lb="-.3" ub="-.3"/><con name="e72" lb="0" ub="0"/><con name="e73" lb="-.35" ub="-.35"/><con name="e74" lb="0" ub="0"/><con name="e75" lb="-.5" ub="-.5"/></constraints><linearConstraintCoefficients numberOfValues="66"><start><el mult="37" incr="1">0</el><el mult="36">36</el><el>39</el><el>41</el><el>44</el><el>46</el><el>49</el><el>51</el><el>54</el><el>56</el><el>59</el><el>61</el><el>64</el><el>66</el></start><colIdx><el mult="36" incr="1">0</el><el>10</el><el>13</el><el>15</el><el>4</el><el>11</el><el>1</el><el mult="2" incr="1">5</el><el>2</el><el>7</el><el>3</el><el>8</el><el>16</el><el>14</el><el>17</el><el>28</el><el>31</el><el>33</el><el>22</el><el>29</el><el>19</el><el mult="2" incr="1">23</el><el>20</el><el>25</el><el>21</el><el>26</el><el>34</el><el>32</el><el>35</el></colIdx><value><el mult="66">1</el></value></linearConstraintCoefficients><quadraticCoefficients  numberOfQuadraticTerms="248" ><qTerm  idx="-1"  idxOne="0"  idxTwo="0"  coef="1225"/><qTerm  idx="-1"  idxOne="9"  idxTwo="9"  coef="8.5e2"/><qTerm  idx="-1"  idxOne="12"  idxTwo="12"  coef="1.1e3"/><qTerm  idx="0"  idxOne="38"  idxTwo="49"  coef="-17.0648"/><qTerm  idx="0"  idxOne="41"  idxTwo="46"  coef="17.0648"/><qTerm  idx="1"  idxOne="38"  idxTwo="49"  coef="17.0648"/><qTerm  idx="1"  idxOne="41"  idxTwo="46"  coef="-17.0648"/><qTerm  idx="2"  idxOne="42"  idxTwo="42"  coef="-1.61712"/><qTerm  idx="2"  idxOne="42"  idxTwo="43"  coef="1.61712"/><qTerm  idx="2"  idxOne="42"  idxTwo="51"  coef="-13.698"/><qTerm  idx="2"  idxOne="43"  idxTwo="50"  coef="13.698"/><qTerm  idx="2"  idxOne="50"  idxTwo="50"  coef="-1.61712"/><qTerm  idx="2"  idxOne="50"  idxTwo="51"  coef="1.61712"/><qTerm  idx="3"  idxOne="42"  idxTwo="43"  coef="1.61712"/><qTerm  idx="3"  idxOne="42"  idxTwo="51"  coef="13.698"/><qTerm  idx="3"  idxOne="43"  idxTwo="43"  coef="-1.61712"/><qTerm  idx="3"  idxOne="43"  idxTwo="50"  coef="-13.698"/><qTerm  idx="3"  idxOne="50"  idxTwo="51"  coef="1.61712"/><qTerm  idx="3"  idxOne="51"  idxTwo="51"  coef="-1.61712"/><qTerm  idx="4"  idxOne="40"  idxTwo="40"  coef="-1.28201"/><qTerm  idx="4"  idxOne="40"  idxTwo="41"  coef="1.28201"/><qTerm  idx="4"  idxOne="40"  idxTwo="49"  coef="-5.58824"/><qTerm  idx="4"  idxOne="41"  idxTwo="48"  coef="5.58824"/><qTerm  idx="4"  idxOne="48"  idxTwo="48"  coef="-1.28201"/><qTerm  idx="4"  idxOne="48"  idxTwo="49"  coef="1.28201"/><qTerm  idx="5"  idxOne="40"  idxTwo="41"  coef="1.28201"/><qTerm  idx="5"  idxOne="40"  idxTwo="49"  coef="5.58824"/><qTerm  idx="5"  idxOne="41"  idxTwo="41"  coef="-1.28201"/><qTerm  idx="5"  idxOne="41"  idxTwo="48"  coef="-5.58824"/><qTerm  idx="5"  idxOne="48"  idxTwo="49"  coef="1.28201"/><qTerm  idx="5"  idxOne="49"  idxTwo="49"  coef="-1.28201"/><qTerm  idx="6"  idxOne="41"  idxTwo="41"  coef="-1.15509"/><qTerm  idx="6"  idxOne="41"  idxTwo="42"  coef="1.15509"/><qTerm  idx="6"  idxOne="41"  idxTwo="50"  coef="-9.78427"/><qTerm  idx="6"  idxOne="42"  idxTwo="49"  coef="9.78427"/><qTerm  idx="6"  idxOne="49"  idxTwo="49"  coef="-1.15509"/><qTerm  idx="6"  idxOne="49"  idxTwo="50"  coef="1.15509"/><qTerm  idx="7"  idxOne="41"  idxTwo="42"  coef="1.15509"/><qTerm  idx="7"  idxOne="41"  idxTwo="50"  coef="9.78427"/><qTerm  idx="7"  idxOne="42"  idxTwo="42"  coef="-1.15509"/><qTerm  idx="7"  idxOne="42"  idxTwo="49"  coef="-9.78427"/><qTerm  idx="7"  idxOne="49"  idxTwo="50"  coef="1.15509"/><qTerm  idx="7"  idxOne="50"  idxTwo="50"  coef="-1.15509"/><qTerm  idx="8"  idxOne="37"  idxTwo="51"  coef="16"/><qTerm  idx="8"  idxOne="43"  idxTwo="45"  coef="-16"/><qTerm  idx="9"  idxOne="37"  idxTwo="51"  coef="-16"/><qTerm  idx="9"  idxOne="43"  idxTwo="45"  coef="16"/><qTerm  idx="10"  idxOne="39"  idxTwo="39"  coef="-1.94219"/><qTerm  idx="10"  idxOne="39"  idxTwo="40"  coef="1.94219"/><qTerm  idx="10"  idxOne="39"  idxTwo="48"  coef="-10.5107"/><qTerm  idx="10"  idxOne="40"  idxTwo="47"  coef="10.5107"/><qTerm  idx="10"  idxOne="47"  idxTwo="47"  coef="-1.94219"/><qTerm  idx="10"  idxOne="47"  idxTwo="48"  coef="1.94219"/><qTerm  idx="11"  idxOne="39"  idxTwo="40"  coef="1.94219"/><qTerm  idx="11"  idxOne="39"  idxTwo="48"  coef="10.5107"/><qTerm  idx="11"  idxOne="40"  idxTwo="40"  coef="-1.94219"/><qTerm  idx="11"  idxOne="40"  idxTwo="47"  coef="-10.5107"/><qTerm  idx="11"  idxOne="47"  idxTwo="48"  coef="1.94219"/><qTerm  idx="11"  idxOne="48"  idxTwo="48"  coef="-1.94219"/><qTerm  idx="12"  idxOne="36"  idxTwo="47"  coef="-17.3611"/><qTerm  idx="13"  idxOne="36"  idxTwo="47"  coef="17.3611"/><qTerm  idx="14"  idxOne="39"  idxTwo="44"  coef="1.36519"/><qTerm  idx="14"  idxOne="39"  idxTwo="52"  coef="11.6041"/><qTerm  idx="14"  idxOne="44"  idxTwo="44"  coef="-1.36519"/><qTerm  idx="14"  idxOne="44"  idxTwo="47"  coef="-11.6041"/><qTerm  idx="14"  idxOne="47"  idxTwo="52"  coef="1.36519"/><qTerm  idx="14"  idxOne="52"  idxTwo="52"  coef="-1.36519"/><qTerm  idx="15"  idxOne="39"  idxTwo="39"  coef="-1.36519"/><qTerm  idx="15"  idxOne="39"  idxTwo="44"  coef="1.36519"/><qTerm  idx="15"  idxOne="39"  idxTwo="52"  coef="-11.6041"/><qTerm  idx="15"  idxOne="44"  idxTwo="47"  coef="11.6041"/><qTerm  idx="15"  idxOne="47"  idxTwo="47"  coef="-1.36519"/><qTerm  idx="15"  idxOne="47"  idxTwo="52"  coef="1.36519"/><qTerm  idx="16"  idxOne="43"  idxTwo="43"  coef="-1.1876"/><qTerm  idx="16"  idxOne="43"  idxTwo="44"  coef="1.1876"/><qTerm  idx="16"  idxOne="43"  idxTwo="52"  coef="-5.97513"/><qTerm  idx="16"  idxOne="44"  idxTwo="51"  coef="5.97513"/><qTerm  idx="16"  idxOne="51"  idxTwo="51"  coef="-1.1876"/><qTerm  idx="16"  idxOne="51"  idxTwo="52"  coef="1.1876"/><qTerm  idx="17"  idxOne="43"  idxTwo="44"  coef="1.1876"/><qTerm  idx="17"  idxOne="43"  idxTwo="52"  coef="5.97513"/><qTerm  idx="17"  idxOne="44"  idxTwo="44"  coef="-1.1876"/><qTerm  idx="17"  idxOne="44"  idxTwo="51"  coef="-5.97513"/><qTerm  idx="17"  idxOne="51"  idxTwo="52"  coef="1.1876"/><qTerm  idx="17"  idxOne="52"  idxTwo="52"  coef="-1.1876"/><qTerm  idx="18"  idxOne="38"  idxTwo="38"  coef="-17.0648"/><qTerm  idx="18"  idxOne="38"  idxTwo="41"  coef="17.0648"/><qTerm  idx="18"  idxOne="46"  idxTwo="46"  coef="-17.0648"/><qTerm  idx="18"  idxOne="46"  idxTwo="49"  coef="17.0648"/><qTerm  idx="19"  idxOne="38"  idxTwo="41"  coef="17.0648"/><qTerm  idx="19"  idxOne="41"  idxTwo="41"  coef="-17.0648"/><qTerm  idx="19"  idxOne="46"  idxTwo="49"  coef="17.0648"/><qTerm  idx="19"  idxOne="49"  idxTwo="49"  coef="-17.0648"/><qTerm  idx="20"  idxOne="42"  idxTwo="42"  coef="-13.6235"/><qTerm  idx="20"  idxOne="42"  idxTwo="43"  coef="13.698"/><qTerm  idx="20"  idxOne="42"  idxTwo="51"  coef="1.61712"/><qTerm  idx="20"  idxOne="43"  idxTwo="50"  coef="-1.61712"/><qTerm  idx="20"  idxOne="50"  idxTwo="50"  coef="-13.6235"/><qTerm  idx="20"  idxOne="50"  idxTwo="51"  coef="13.698"/><qTerm  idx="21"  idxOne="42"  idxTwo="43"  coef="13.698"/><qTerm  idx="21"  idxOne="42"  idxTwo="51"  coef="-1.61712"/><qTerm  idx="21"  idxOne="43"  idxTwo="43"  coef="-13.6235"/><qTerm  idx="21"  idxOne="43"  idxTwo="50"  coef="1.61712"/><qTerm  idx="21"  idxOne="50"  idxTwo="51"  coef="13.698"/><qTerm  idx="21"  idxOne="51"  idxTwo="51"  coef="-13.6235"/><qTerm  idx="22"  idxOne="40"  idxTwo="40"  coef="-5.40924"/><qTerm  idx="22"  idxOne="40"  idxTwo="41"  coef="5.58824"/><qTerm  idx="22"  idxOne="40"  idxTwo="49"  coef="1.28201"/><qTerm  idx="22"  idxOne="41"  idxTwo="48"  coef="-1.28201"/><qTerm  idx="22"  idxOne="48"  idxTwo="48"  coef="-5.40924"/><qTerm  idx="22"  idxOne="48"  idxTwo="49"  coef="5.58824"/><qTerm  idx="23"  idxOne="40"  idxTwo="41"  coef="5.58824"/><qTerm  idx="23"  idxOne="40"  idxTwo="49"  coef="-1.28201"/><qTerm  idx="23"  idxOne="41"  idxTwo="41"  coef="-5.40924"/><qTerm  idx="23"  idxOne="41"  idxTwo="48"  coef="1.28201"/><qTerm  idx="23"  idxOne="48"  idxTwo="49"  coef="5.58824"/><qTerm  idx="23"  idxOne="49"  idxTwo="49"  coef="-5.40924"/><qTerm  idx="24"  idxOne="41"  idxTwo="41"  coef="-9.67977"/><qTerm  idx="24"  idxOne="41"  idxTwo="42"  coef="9.78427"/><qTerm  idx="24"  idxOne="41"  idxTwo="50"  coef="1.15509"/><qTerm  idx="24"  idxOne="42"  idxTwo="49"  coef="-1.15509"/><qTerm  idx="24"  idxOne="49"  idxTwo="49"  coef="-9.67977"/><qTerm  idx="24"  idxOne="49"  idxTwo="50"  coef="9.78427"/><qTerm  idx="25"  idxOne="41"  idxTwo="42"  coef="9.78427"/><qTerm  idx="25"  idxOne="41"  idxTwo="50"  coef="-1.15509"/><qTerm  idx="25"  idxOne="42"  idxTwo="42"  coef="-9.67977"/><qTerm  idx="25"  idxOne="42"  idxTwo="49"  coef="1.15509"/><qTerm  idx="25"  idxOne="49"  idxTwo="50"  coef="9.78427"/><qTerm  idx="25"  idxOne="50"  idxTwo="50"  coef="-9.67977"/><qTerm  idx="26"  idxOne="37"  idxTwo="43"  coef="16"/><qTerm  idx="26"  idxOne="43"  idxTwo="43"  coef="-16"/><qTerm  idx="26"  idxOne="45"  idxTwo="51"  coef="16"/><qTerm  idx="26"  idxOne="51"  idxTwo="51"  coef="-16"/><qTerm  idx="27"  idxOne="37"  idxTwo="37"  coef="-16"/><qTerm  idx="27"  idxOne="37"  idxTwo="43"  coef="16"/><qTerm  idx="27"  idxOne="45"  idxTwo="45"  coef="-16"/><qTerm  idx="27"  idxOne="45"  idxTwo="51"  coef="16"/><qTerm  idx="28"  idxOne="39"  idxTwo="39"  coef="-10.4317"/><qTerm  idx="28"  idxOne="39"  idxTwo="40"  coef="10.5107"/><qTerm  idx="28"  idxOne="39"  idxTwo="48"  coef="1.94219"/><qTerm  idx="28"  idxOne="40"  idxTwo="47"  coef="-1.94219"/><qTerm  idx="28"  idxOne="47"  idxTwo="47"  coef="-10.4317"/><qTerm  idx="28"  idxOne="47"  idxTwo="48"  coef="10.5107"/><qTerm  idx="29"  idxOne="39"  idxTwo="40"  coef="10.5107"/><qTerm  idx="29"  idxOne="39"  idxTwo="48"  coef="-1.94219"/><qTerm  idx="29"  idxOne="40"  idxTwo="40"  coef="-10.4317"/><qTerm  idx="29"  idxOne="40"  idxTwo="47"  coef="1.94219"/><qTerm  idx="29"  idxOne="47"  idxTwo="48"  coef="10.5107"/><qTerm  idx="29"  idxOne="48"  idxTwo="48"  coef="-10.4317"/><qTerm  idx="30"  idxOne="36"  idxTwo="36"  coef="-17.3611"/><qTerm  idx="30"  idxOne="36"  idxTwo="39"  coef="17.3611"/><qTerm  idx="31"  idxOne="36"  idxTwo="39"  coef="17.3611"/><qTerm  idx="31"  idxOne="39"  idxTwo="39"  coef="-17.3611"/><qTerm  idx="31"  idxOne="47"  idxTwo="47"  coef="-17.3611"/><qTerm  idx="32"  idxOne="39"  idxTwo="44"  coef="11.6041"/><qTerm  idx="32"  idxOne="39"  idxTwo="52"  coef="-1.36519"/><qTerm  idx="32"  idxOne="44"  idxTwo="44"  coef="-11.5161"/><qTerm  idx="32"  idxOne="44"  idxTwo="47"  coef="1.36519"/><qTerm  idx="32"  idxOne="47"  idxTwo="52"  coef="11.6041"/><qTerm  idx="32"  idxOne="52"  idxTwo="52"  coef="-11.5161"/><qTerm  idx="33"  idxOne="39"  idxTwo="39"  coef="-11.5161"/><qTerm  idx="33"  idxOne="39"  idxTwo="44"  coef="11.6041"/><qTerm  idx="33"  idxOne="39"  idxTwo="52"  coef="1.36519"/><qTerm  idx="33"  idxOne="44"  idxTwo="47"  coef="-1.36519"/><qTerm  idx="33"  idxOne="47"  idxTwo="47"  coef="-11.5161"/><qTerm  idx="33"  idxOne="47"  idxTwo="52"  coef="11.6041"/><qTerm  idx="34"  idxOne="43"  idxTwo="43"  coef="-5.82213"/><qTerm  idx="34"  idxOne="43"  idxTwo="44"  coef="5.97513"/><qTerm  idx="34"  idxOne="43"  idxTwo="52"  coef="1.1876"/><qTerm  idx="34"  idxOne="44"  idxTwo="51"  coef="-1.1876"/><qTerm  idx="34"  idxOne="51"  idxTwo="51"  coef="-5.82213"/><qTerm  idx="34"  idxOne="51"  idxTwo="52"  coef="5.97513"/><qTerm  idx="35"  idxOne="43"  idxTwo="44"  coef="5.97513"/><qTerm  idx="35"  idxOne="43"  idxTwo="52"  coef="-1.1876"/><qTerm  idx="35"  idxOne="44"  idxTwo="44"  coef="-5.82213"/><qTerm  idx="35"  idxOne="44"  idxTwo="51"  coef="1.1876"/><qTerm  idx="35"  idxOne="51"  idxTwo="52"  coef="5.97513"/><qTerm  idx="35"  idxOne="52"  idxTwo="52"  coef="-5.82213"/><qTerm  idx="36"  idxOne="0"  idxTwo="0"  coef="1"/><qTerm  idx="36"  idxOne="18"  idxTwo="18"  coef="1"/><qTerm  idx="37"  idxOne="1"  idxTwo="1"  coef="1"/><qTerm  idx="37"  idxOne="19"  idxTwo="19"  coef="1"/><qTerm  idx="38"  idxOne="2"  idxTwo="2"  coef="1"/><qTerm  idx="38"  idxOne="20"  idxTwo="20"  coef="1"/><qTerm  idx="39"  idxOne="3"  idxTwo="3"  coef="1"/><qTerm  idx="39"  idxOne="21"  idxTwo="21"  coef="1"/><qTerm  idx="40"  idxOne="4"  idxTwo="4"  coef="1"/><qTerm  idx="40"  idxOne="22"  idxTwo="22"  coef="1"/><qTerm  idx="41"  idxOne="5"  idxTwo="5"  coef="1"/><qTerm  idx="41"  idxOne="23"  idxTwo="23"  coef="1"/><qTerm  idx="42"  idxOne="6"  idxTwo="6"  coef="1"/><qTerm  idx="42"  idxOne="24"  idxTwo="24"  coef="1"/><qTerm  idx="43"  idxOne="7"  idxTwo="7"  coef="1"/><qTerm  idx="43"  idxOne="25"  idxTwo="25"  coef="1"/><qTerm  idx="44"  idxOne="8"  idxTwo="8"  coef="1"/><qTerm  idx="44"  idxOne="26"  idxTwo="26"  coef="1"/><qTerm  idx="45"  idxOne="9"  idxTwo="9"  coef="1"/><qTerm  idx="45"  idxOne="27"  idxTwo="27"  coef="1"/><qTerm  idx="46"  idxOne="10"  idxTwo="10"  coef="1"/><qTerm  idx="46"  idxOne="28"  idxTwo="28"  coef="1"/><qTerm  idx="47"  idxOne="11"  idxTwo="11"  coef="1"/><qTerm  idx="47"  idxOne="29"  idxTwo="29"  coef="1"/><qTerm  idx="48"  idxOne="12"  idxTwo="12"  coef="1"/><qTerm  idx="48"  idxOne="30"  idxTwo="30"  coef="1"/><qTerm  idx="49"  idxOne="13"  idxTwo="13"  coef="1"/><qTerm  idx="49"  idxOne="31"  idxTwo="31"  coef="1"/><qTerm  idx="50"  idxOne="14"  idxTwo="14"  coef="1"/><qTerm  idx="50"  idxOne="32"  idxTwo="32"  coef="1"/><qTerm  idx="51"  idxOne="15"  idxTwo="15"  coef="1"/><qTerm  idx="51"  idxOne="33"  idxTwo="33"  coef="1"/><qTerm  idx="52"  idxOne="16"  idxTwo="16"  coef="1"/><qTerm  idx="52"  idxOne="34"  idxTwo="34"  coef="1"/><qTerm  idx="53"  idxOne="17"  idxTwo="17"  coef="1"/><qTerm  idx="53"  idxOne="35"  idxTwo="35"  coef="1"/><qTerm  idx="54"  idxOne="36"  idxTwo="36"  coef="1"/><qTerm  idx="55"  idxOne="36"  idxTwo="36"  coef="1"/><qTerm  idx="56"  idxOne="37"  idxTwo="37"  coef="1"/><qTerm  idx="56"  idxOne="45"  idxTwo="45"  coef="1"/><qTerm  idx="57"  idxOne="37"  idxTwo="37"  coef="1"/><qTerm  idx="57"  idxOne="45"  idxTwo="45"  coef="1"/><qTerm  idx="58"  idxOne="38"  idxTwo="38"  coef="1"/><qTerm  idx="58"  idxOne="46"  idxTwo="46"  coef="1"/><qTerm  idx="59"  idxOne="38"  idxTwo="38"  coef="1"/><qTerm  idx="59"  idxOne="46"  idxTwo="46"  coef="1"/><qTerm  idx="60"  idxOne="39"  idxTwo="39"  coef="1"/><qTerm  idx="60"  idxOne="47"  idxTwo="47"  coef="1"/><qTerm  idx="61"  idxOne="39"  idxTwo="39"  coef="1"/><qTerm  idx="61"  idxOne="47"  idxTwo="47"  coef="1"/><qTerm  idx="62"  idxOne="40"  idxTwo="40"  coef="1"/><qTerm  idx="62"  idxOne="48"  idxTwo="48"  coef="1"/><qTerm  idx="63"  idxOne="40"  idxTwo="40"  coef="1"/><qTerm  idx="63"  idxOne="48"  idxTwo="48"  coef="1"/><qTerm  idx="64"  idxOne="41"  idxTwo="41"  coef="1"/><qTerm  idx="64"  idxOne="49"  idxTwo="49"  coef="1"/><qTerm  idx="65"  idxOne="41"  idxTwo="41"  coef="1"/><qTerm  idx="65"  idxOne="49"  idxTwo="49"  coef="1"/><qTerm  idx="66"  idxOne="42"  idxTwo="42"  coef="1"/><qTerm  idx="66"  idxOne="50"  idxTwo="50"  coef="1"/><qTerm  idx="67"  idxOne="42"  idxTwo="42"  coef="1"/><qTerm  idx="67"  idxOne="50"  idxTwo="50"  coef="1"/><qTerm  idx="68"  idxOne="43"  idxTwo="43"  coef="1"/><qTerm  idx="68"  idxOne="51"  idxTwo="51"  coef="1"/><qTerm  idx="69"  idxOne="43"  idxTwo="43"  coef="1"/><qTerm  idx="69"  idxOne="51"  idxTwo="51"  coef="1"/><qTerm  idx="70"  idxOne="44"  idxTwo="44"  coef="1"/><qTerm  idx="70"  idxOne="52"  idxTwo="52"  coef="1"/><qTerm  idx="71"  idxOne="44"  idxTwo="44"  coef="1"/><qTerm  idx="71"  idxOne="52"  idxTwo="52"  coef="1"/></quadraticCoefficients></instanceData></osil>
